============================[ Problem Statistics ]=============================|                                                                             ||  Number of variables:          4242                                         ||  Number of clauses:           10057                                         ||  Parse time:                   0.45 s                                       ||                                                                             |============================[ Search Statistics ]==============================| Conflicts |          ORIGINAL         |          LEARNT          | Progress ||           |    Vars  Clauses Literals |    Limit  Clauses Lit/Cl |          |===============================================================================|       100 |    1591     6262   710243 |     2296      100     53 | 62.501 % ||       250 |    1591     6262   710243 |     2525      250     75 | 62.495 % |===============================================================================restarts              : 3conflicts             : 253            (375 /sec)decisions             : 519            (0.00 % random) (769 /sec)propagations          : 11759          (17421 /sec)conflict literals     : 19162          (94.89 % deleted)CPU time              : 0.675 sSATISFIABLE